(set-logic HORN)
(declare-datatypes ((Nat_76 0)) (((Z_216 ) (S_76 (unS_78 Nat_76)))))
(declare-fun diseqNat_76 (Nat_76 Nat_76) Bool)
(declare-fun unS_79 (Nat_76 Nat_76) Bool)
(declare-fun isZ_76 (Nat_76) Bool)
(declare-fun isS_76 (Nat_76) Bool)
(assert (forall ((x_2155 Nat_76))
	(unS_79 x_2155 (S_76 x_2155))))
(assert (isZ_76 Z_216))
(assert (forall ((x_2157 Nat_76))
	(isS_76 (S_76 x_2157))))
(assert (forall ((x_2158 Nat_76))
	(diseqNat_76 Z_216 (S_76 x_2158))))
(assert (forall ((x_2159 Nat_76))
	(diseqNat_76 (S_76 x_2159) Z_216)))
(assert (forall ((x_2160 Nat_76) (x_2161 Nat_76))
	(=> (diseqNat_76 x_2160 x_2161)
	    (diseqNat_76 (S_76 x_2160) (S_76 x_2161)))))
(declare-fun add_39 (Nat_76 Nat_76 Nat_76) Bool)
(declare-fun minus_39 (Nat_76 Nat_76 Nat_76) Bool)
(declare-fun le_39 (Nat_76 Nat_76) Bool)
(declare-fun ge_39 (Nat_76 Nat_76) Bool)
(declare-fun lt_39 (Nat_76 Nat_76) Bool)
(declare-fun gt_39 (Nat_76 Nat_76) Bool)
(declare-fun mult_39 (Nat_76 Nat_76 Nat_76) Bool)
(declare-fun div_39 (Nat_76 Nat_76 Nat_76) Bool)
(declare-fun mod_39 (Nat_76 Nat_76 Nat_76) Bool)
(assert (forall ((y_170 Nat_76))
	(add_39 y_170 Z_216 y_170)))
(assert (forall ((x_2131 Nat_76) (y_170 Nat_76) (r_39 Nat_76))
	(=> (add_39 r_39 x_2131 y_170)
	    (add_39 (S_76 r_39) (S_76 x_2131) y_170))))
(assert (forall ((y_170 Nat_76))
	(minus_39 Z_216 Z_216 y_170)))
(assert (forall ((x_2131 Nat_76) (y_170 Nat_76) (r_39 Nat_76))
	(=> (minus_39 r_39 x_2131 y_170)
	    (minus_39 (S_76 r_39) (S_76 x_2131) y_170))))
(assert (forall ((y_170 Nat_76))
	(le_39 Z_216 y_170)))
(assert (forall ((x_2131 Nat_76) (y_170 Nat_76))
	(=> (le_39 x_2131 y_170)
	    (le_39 (S_76 x_2131) (S_76 y_170)))))
(assert (forall ((y_170 Nat_76))
	(ge_39 y_170 Z_216)))
(assert (forall ((x_2131 Nat_76) (y_170 Nat_76))
	(=> (ge_39 x_2131 y_170)
	    (ge_39 (S_76 x_2131) (S_76 y_170)))))
(assert (forall ((y_170 Nat_76))
	(lt_39 Z_216 (S_76 y_170))))
(assert (forall ((x_2131 Nat_76) (y_170 Nat_76))
	(=> (lt_39 x_2131 y_170)
	    (lt_39 (S_76 x_2131) (S_76 y_170)))))
(assert (forall ((y_170 Nat_76))
	(gt_39 (S_76 y_170) Z_216)))
(assert (forall ((x_2131 Nat_76) (y_170 Nat_76))
	(=> (gt_39 x_2131 y_170)
	    (gt_39 (S_76 x_2131) (S_76 y_170)))))
(assert (forall ((y_170 Nat_76))
	(mult_39 Z_216 Z_216 y_170)))
(assert (forall ((x_2131 Nat_76) (y_170 Nat_76) (r_39 Nat_76) (z_217 Nat_76))
	(=>	(and (mult_39 r_39 x_2131 y_170)
			(add_39 z_217 r_39 y_170))
		(mult_39 z_217 (S_76 x_2131) y_170))))
(assert (forall ((x_2131 Nat_76) (y_170 Nat_76))
	(=> (lt_39 x_2131 y_170)
	    (div_39 Z_216 x_2131 y_170))))
(assert (forall ((x_2131 Nat_76) (y_170 Nat_76) (r_39 Nat_76) (z_217 Nat_76))
	(=>	(and (ge_39 x_2131 y_170)
			(minus_39 z_217 x_2131 y_170)
			(div_39 r_39 z_217 y_170))
		(div_39 (S_76 r_39) x_2131 y_170))))
(assert (forall ((x_2131 Nat_76) (y_170 Nat_76))
	(=> (lt_39 x_2131 y_170)
	    (mod_39 x_2131 x_2131 y_170))))
(assert (forall ((x_2131 Nat_76) (y_170 Nat_76) (r_39 Nat_76) (z_217 Nat_76))
	(=>	(and (ge_39 x_2131 y_170)
			(minus_39 z_217 x_2131 y_170)
			(mod_39 r_39 z_217 y_170))
		(mod_39 r_39 x_2131 y_170))))
(declare-datatypes ((list_37 0)) (((nil_37 ) (cons_37 (head_74 Nat_76) (tail_74 list_37)))))
(declare-fun diseqlist_37 (list_37 list_37) Bool)
(declare-fun head_75 (Nat_76 list_37) Bool)
(declare-fun tail_75 (list_37 list_37) Bool)
(declare-fun isnil_37 (list_37) Bool)
(declare-fun iscons_37 (list_37) Bool)
(assert (forall ((x_2133 Nat_76) (x_2134 list_37))
	(head_75 x_2133 (cons_37 x_2133 x_2134))))
(assert (forall ((x_2133 Nat_76) (x_2134 list_37))
	(tail_75 x_2134 (cons_37 x_2133 x_2134))))
(assert (isnil_37 nil_37))
(assert (forall ((x_2136 Nat_76) (x_2137 list_37))
	(iscons_37 (cons_37 x_2136 x_2137))))
(assert (forall ((x_2138 Nat_76) (x_2139 list_37))
	(diseqlist_37 nil_37 (cons_37 x_2138 x_2139))))
(assert (forall ((x_2140 Nat_76) (x_2141 list_37))
	(diseqlist_37 (cons_37 x_2140 x_2141) nil_37)))
(assert (forall ((x_2142 Nat_76) (x_2143 list_37) (x_2144 Nat_76) (x_2145 list_37))
	(=> (diseqNat_76 x_2142 x_2144)
	    (diseqlist_37 (cons_37 x_2142 x_2143) (cons_37 x_2144 x_2145)))))
(assert (forall ((x_2142 Nat_76) (x_2143 list_37) (x_2144 Nat_76) (x_2145 list_37))
	(=> (diseqlist_37 x_2143 x_2145)
	    (diseqlist_37 (cons_37 x_2142 x_2143) (cons_37 x_2144 x_2145)))))
(declare-datatypes ((Nat_75 0)) (((Z_214 ) (S_75 (projS_72 Nat_75)))))
(declare-fun diseqNat_75 (Nat_75 Nat_75) Bool)
(declare-fun projS_73 (Nat_75 Nat_75) Bool)
(declare-fun isZ_75 (Nat_75) Bool)
(declare-fun isS_75 (Nat_75) Bool)
(assert (forall ((x_2147 Nat_75))
	(projS_73 x_2147 (S_75 x_2147))))
(assert (isZ_75 Z_214))
(assert (forall ((x_2149 Nat_75))
	(isS_75 (S_75 x_2149))))
(assert (forall ((x_2150 Nat_75))
	(diseqNat_75 Z_214 (S_75 x_2150))))
(assert (forall ((x_2151 Nat_75))
	(diseqNat_75 (S_75 x_2151) Z_214)))
(assert (forall ((x_2152 Nat_75) (x_2153 Nat_75))
	(=> (diseqNat_75 x_2152 x_2153)
	    (diseqNat_75 (S_75 x_2152) (S_75 x_2153)))))
(declare-fun drop_7 (list_37 Nat_75 list_37) Bool)
(assert (forall ((x_2125 list_37) (x_2122 Nat_76) (x_2123 list_37) (z_215 Nat_75))
	(=> (drop_7 x_2125 z_215 x_2123)
	    (drop_7 x_2125 (S_75 z_215) (cons_37 x_2122 x_2123)))))
(assert (forall ((z_215 Nat_75))
	(drop_7 nil_37 (S_75 z_215) nil_37)))
(assert (forall ((x_2128 list_37))
	(drop_7 x_2128 Z_214 x_2128)))
(assert (forall ((x_2129 list_37) (x_2130 list_37) (n_16 Nat_75) (x_2124 Nat_76) (xs_62 list_37))
	(=>	(and true
			(diseqlist_37 x_2129 x_2130)
			(drop_7 x_2129 (S_75 n_16) (cons_37 x_2124 xs_62))
			(drop_7 x_2130 n_16 xs_62))
		false)))
(check-sat)
